rcpsp/heur_output_bi_constraints/Log=5/heurj120.txt
encoding rcpsp/j120.sm/j12024_6.sm nv: 1005176 nc: 2283287 enctime: 36.09
encoding rcpsp/j120.sm/j12024_6.sm nv: 152488 nc: 342271 enctime: 1.70
c File: j12024_6.smnaivebi5.wcnf
c optimal
c final solution cost: 88
c CPU time: 8.970599
s OPTIMUM FOUND

c File: j12024_6.smbi5.wcnf
c optimal
c final solution cost: 88
c CPU time: 0.545650
s OPTIMUM FOUND


rcpsp/heur_output_bi_constraints/Log=5/heurj120.txt
encoding rcpsp/j120.sm/j12024_7.sm nv: 1086255 nc: 2525418 enctime: 42.19
encoding rcpsp/j120.sm/j12024_7.sm nv: 168165 nc: 386238 enctime: 3.06
c File: j12024_7.smnaivebi5.wcnf
c optimal
c final solution cost: 91
c CPU time: 9.757823
s OPTIMUM FOUND

c File: j12024_7.smbi5.wcnf
c optimal
c final solution cost: 91
c CPU time: 0.584709
s OPTIMUM FOUND


rcpsp/heur_output_bi_constraints/Log=5/heurj120.txt
encoding rcpsp/j120.sm/j12024_8.sm nv: 775012 nc: 1805933 enctime: 30.83
encoding rcpsp/j120.sm/j12024_8.sm nv: 138084 nc: 318061 enctime: 1.67
c File: j12024_8.smnaivebi5.wcnf
c optimal
c final solution cost: 96
c CPU time: 9.666616
s OPTIMUM FOUND

c File: j12024_8.smbi5.wcnf
c optimal
c final solution cost: 96
c CPU time: 0.899274
s OPTIMUM FOUND


rcpsp/heur_output_bi_constraints/Log=5/heurj120.txt
encoding rcpsp/j120.sm/j12024_9.sm nv: 775257 nc: 1790344 enctime: 29.38
encoding rcpsp/j120.sm/j12024_9.sm nv: 131119 nc: 299162 enctime: 2.36
c File: j12024_9.smnaivebi5.wcnf
c optimal
c final solution cost: 82
c CPU time: 8.859576
s OPTIMUM FOUND

c File: j12024_9.smbi5.wcnf
c optimal
c final solution cost: 82
c CPU time: 0.720533
s OPTIMUM FOUND


rcpsp/heur_output_bi_constraints/Log=5/heurj120.txt
encoding rcpsp/j120.sm/j1202_4.sm nv: 714051 nc: 1709232 enctime: 29.56
encoding rcpsp/j120.sm/j1202_4.sm nv: 129240 nc: 305577 enctime: 2.42
c File: j1202_4.smnaivebi5.wcnf
c optimal
c final solution cost: 81
c CPU time: 14.896494
s OPTIMUM FOUND

c File: j1202_4.smbi5.wcnf
c optimal
c final solution cost: 81
c CPU time: 1.759469
s OPTIMUM FOUND


rcpsp/heur_output_bi_constraints/Log=5/heurj120.txt
encoding rcpsp/j120.sm/j12025_10.sm nv: 976239 nc: 2208227 enctime: 34.18
encoding rcpsp/j120.sm/j12025_10.sm nv: 144801 nc: 323741 enctime: 1.60
c File: j12025_10.smnaivebi5.wcnf
c optimal
c final solution cost: 85
c CPU time: 8.258315
s OPTIMUM FOUND

c File: j12025_10.smbi5.wcnf
c optimal
c final solution cost: 85
c CPU time: 0.444169
s OPTIMUM FOUND


rcpsp/heur_output_bi_constraints/Log=5/heurj120.txt
encoding rcpsp/j120.sm/j12025_1.sm nv: 1047510 nc: 2403039 enctime: 38.15
encoding rcpsp/j120.sm/j12025_1.sm nv: 140595 nc: 318015 enctime: 2.54
c File: j12025_1.smnaivebi5.wcnf
c optimal
c final solution cost: 82
c CPU time: 11.475863
s OPTIMUM FOUND

c File: j12025_1.smbi5.wcnf
c optimal
c final solution cost: 82
c CPU time: 0.457247
s OPTIMUM FOUND


rcpsp/heur_output_bi_constraints/Log=5/heurj120.txt
encoding rcpsp/j120.sm/j12025_2.sm nv: 999130 nc: 2311561 enctime: 38.77
encoding rcpsp/j120.sm/j12025_2.sm nv: 140640 nc: 320919 enctime: 1.61
c File: j12025_2.smnaivebi5.wcnf
c optimal
c final solution cost: 88
c CPU time: 9.283500
s OPTIMUM FOUND

c File: j12025_2.smbi5.wcnf
c optimal
c final solution cost: 88
c CPU time: 0.462796
s OPTIMUM FOUND


rcpsp/heur_output_bi_constraints/Log=5/heurj120.txt
encoding rcpsp/j120.sm/j12025_3.sm nv: 1154440 nc: 2595204 enctime: 39.33
encoding rcpsp/j120.sm/j12025_3.sm nv: 171864 nc: 382144 enctime: 2.95
c File: j12025_3.smnaivebi5.wcnf
c optimal
c final solution cost: 83
c CPU time: 7.570743
s OPTIMUM FOUND

c File: j12025_3.smbi5.wcnf
c optimal
c final solution cost: 83
c CPU time: 0.435814
s OPTIMUM FOUND


rcpsp/heur_output_bi_constraints/Log=5/heurj120.txt
encoding rcpsp/j120.sm/j12025_4.sm nv: 980672 nc: 2304349 enctime: 39.71
encoding rcpsp/j120.sm/j12025_4.sm nv: 164374 nc: 381683 enctime: 3.05
c File: j12025_4.smnaivebi5.wcnf
c optimal
c final solution cost: 97
c CPU time: 9.626406
s OPTIMUM FOUND

c File: j12025_4.smbi5.wcnf
c optimal
c final solution cost: 97
c CPU time: 0.684684
s OPTIMUM FOUND


rcpsp/heur_output_bi_constraints/Log=5/heurj120.txt
encoding rcpsp/j120.sm/j12025_5.sm nv: 1030176 nc: 2340049 enctime: 36.51
encoding rcpsp/j120.sm/j12025_5.sm nv: 158368 nc: 355685 enctime: 2.74
c File: j12025_5.smnaivebi5.wcnf
c optimal
c final solution cost: 100
c CPU time: 7.179302
s OPTIMUM FOUND

c File: j12025_5.smbi5.wcnf
c optimal
c final solution cost: 100
c CPU time: 0.418616
s OPTIMUM FOUND


rcpsp/heur_output_bi_constraints/Log=5/heurj120.txt
encoding rcpsp/j120.sm/j12025_6.sm nv: 926826 nc: 2160447 enctime: 36.87
encoding rcpsp/j120.sm/j12025_6.sm nv: 142168 nc: 327091 enctime: 2.68
c File: j12025_6.smnaivebi5.wcnf
c optimal
c final solution cost: 91
c CPU time: 10.343061
s OPTIMUM FOUND

c File: j12025_6.smbi5.wcnf
c optimal
c final solution cost: 91
c CPU time: 0.531211
s OPTIMUM FOUND


rcpsp/heur_output_bi_constraints/Log=5/heurj120.txt
encoding rcpsp/j120.sm/j12025_7.sm nv: 959108 nc: 2248977 enctime: 39.54
encoding rcpsp/j120.sm/j12025_7.sm nv: 147874 nc: 342401 enctime: 1.76
c File: j12025_7.smnaivebi5.wcnf
c optimal
c final solution cost: 90
c CPU time: 10.175627
s OPTIMUM FOUND

c File: j12025_7.smbi5.wcnf
c optimal
c final solution cost: 90
c CPU time: 0.923759
s OPTIMUM FOUND


rcpsp/heur_output_bi_constraints/Log=5/heurj120.txt
encoding rcpsp/j120.sm/j12025_8.sm nv: 981650 nc: 2264276 enctime: 38.64
encoding rcpsp/j120.sm/j12025_8.sm nv: 130500 nc: 296652 enctime: 1.48
c File: j12025_8.smnaivebi5.wcnf
c optimal
c final solution cost: 77
c CPU time: 9.729638
s OPTIMUM FOUND

c File: j12025_8.smbi5.wcnf
c optimal
c final solution cost: 77
c CPU time: 0.797995
s OPTIMUM FOUND


rcpsp/heur_output_bi_constraints/Log=5/heurj120.txt
encoding rcpsp/j120.sm/j12025_9.sm nv: 963168 nc: 2180285 enctime: 34.82
encoding rcpsp/j120.sm/j12025_9.sm nv: 149352 nc: 334247 enctime: 1.68
c File: j12025_9.smnaivebi5.wcnf
c optimal
c final solution cost: 88
c CPU time: 8.874749
s OPTIMUM FOUND

c File: j12025_9.smbi5.wcnf
c optimal
c final solution cost: 88
c CPU time: 0.525643
s OPTIMUM FOUND


rcpsp/heur_output_bi_constraints/Log=5/heurj120.txt
encoding rcpsp/j120.sm/j1202_5.sm nv: 674966 nc: 1672213 enctime: 31.96
encoding rcpsp/j120.sm/j1202_5.sm nv: 124743 nc: 304906 enctime: 1.63
c File: j1202_5.smnaivebi5.wcnf
c optimal
c final solution cost: 96
c CPU time: 35.759321
s OPTIMUM FOUND

c File: j1202_5.smbi5.wcnf
c optimal
c final solution cost: 96
c CPU time: 7.544648
s OPTIMUM FOUND


rcpsp/heur_output_bi_constraints/Log=5/heurj120.txt
encoding rcpsp/j120.sm/j12026_10.sm nv: 1320744 nc: 2963824 enctime: 43.37
encoding rcpsp/j120.sm/j12026_10.sm nv: 448040 nc: 1002032 enctime: 8.58
c File: j12026_10.smnaivebi5.wcnf
c timeout
c final solution cost: 189
c CPU time: 67.509159
s UNKNOWN

c File: j12026_10.smbi5.wcnf
c timeout
c final solution cost: 197
c CPU time: 61.226033
s UNKNOWN


rcpsp/heur_output_bi_constraints/Log=5/heurj120.txt
encoding rcpsp/j120.sm/j12026_1.sm nv: 1435848 nc: 3210930 enctime: 46.41
encoding rcpsp/j120.sm/j12026_1.sm nv: 490994 nc: 1094512 enctime: 9.46
c File: j12026_1.smnaivebi5.wcnf
c timeout
c final solution cost: 272
c CPU time: 68.035660
s UNKNOWN

c File: j12026_1.smbi5.wcnf
c timeout
c final solution cost: 173
c CPU time: 61.347323
s UNKNOWN


rcpsp/heur_output_bi_constraints/Log=5/heurj120.txt
encoding rcpsp/j120.sm/j12026_2.sm nv: 1302174 nc: 2904358 enctime: 42.11
encoding rcpsp/j120.sm/j12026_2.sm nv: 445950 nc: 991462 enctime: 7.33
c File: j12026_2.smnaivebi5.wcnf
c timeout
c final solution cost: 199
c CPU time: 67.128336
s UNKNOWN

c File: j12026_2.smbi5.wcnf
c timeout
c final solution cost: 177
c CPU time: 61.204033
s UNKNOWN


rcpsp/heur_output_bi_constraints/Log=5/heurj120.txt
encoding rcpsp/j120.sm/j12026_3.sm nv: 1474880 nc: 3299821 enctime: 47.62
encoding rcpsp/j120.sm/j12026_3.sm nv: 500705 nc: 1116646 enctime: 9.47
c File: j12026_3.smnaivebi5.wcnf
c timeout
c final solution cost: 298
c CPU time: 68.290863
s UNKNOWN

c File: j12026_3.smbi5.wcnf
c timeout
c final solution cost: 179
c CPU time: 61.374446
s UNKNOWN


rcpsp/heur_output_bi_constraints/Log=5/heurj120.txt
encoding rcpsp/j120.sm/j12026_4.sm nv: 1378628 nc: 3058104 enctime: 44.00
encoding rcpsp/j120.sm/j12026_4.sm nv: 458148 nc: 1012984 enctime: 7.36
c File: j12026_4.smnaivebi5.wcnf
c timeout
c final solution cost: 177
c CPU time: 67.079377
s UNKNOWN

c File: j12026_4.smbi5.wcnf
c timeout
c final solution cost: 173
c CPU time: 61.201520
s UNKNOWN


rcpsp/heur_output_bi_constraints/Log=5/heurj120.txt
encoding rcpsp/j120.sm/j12026_5.sm nv: 1274139 nc: 2786610 enctime: 37.20
encoding rcpsp/j120.sm/j12026_5.sm nv: 454295 nc: 990946 enctime: 8.15
c File: j12026_5.smnaivebi5.wcnf
c timeout
c final solution cost: 168
c CPU time: 66.218468
s UNKNOWN

c File: j12026_5.smbi5.wcnf
c timeout
c final solution cost: 159
c CPU time: 61.162083
s UNKNOWN


rcpsp/heur_output_bi_constraints/Log=5/heurj120.txt
encoding rcpsp/j120.sm/j12026_6.sm nv: 1352025 nc: 3023050 enctime: 43.97
encoding rcpsp/j120.sm/j12026_6.sm nv: 514771 nc: 1147902 enctime: 8.63
c File: j12026_6.smnaivebi5.wcnf
c timeout
c final solution cost: 197
c CPU time: 67.831762
s UNKNOWN

c File: j12026_6.smbi5.wcnf
c timeout
c final solution cost: 190
c CPU time: 61.489790
s UNKNOWN


rcpsp/heur_output_bi_constraints/Log=5/heurj120.txt
encoding rcpsp/j120.sm/j12026_7.sm nv: 1386480 nc: 3047492 enctime: 41.63
encoding rcpsp/j120.sm/j12026_7.sm nv: 468700 nc: 1027113 enctime: 7.35
c File: j12026_7.smnaivebi5.wcnf
c timeout
c final solution cost: 168
c CPU time: 66.776029
s UNKNOWN

c File: j12026_7.smbi5.wcnf
c timeout
c final solution cost: 164
c CPU time: 61.182927
s UNKNOWN


rcpsp/heur_output_bi_constraints/Log=5/heurj120.txt
encoding rcpsp/j120.sm/j12026_8.sm nv: 1264868 nc: 2816949 enctime: 40.14
encoding rcpsp/j120.sm/j12026_8.sm nv: 442508 nc: 982389 enctime: 8.46
c File: j12026_8.smnaivebi5.wcnf
c timeout
c final solution cost: 408
c CPU time: 66.975994
s UNKNOWN

c File: j12026_8.smbi5.wcnf
c timeout
c final solution cost: 180
c CPU time: 61.213300
s UNKNOWN


rcpsp/heur_output_bi_constraints/Log=5/heurj120.txt
encoding rcpsp/j120.sm/j12026_9.sm nv: 1572165 nc: 3531855 enctime: 53.90
encoding rcpsp/j120.sm/j12026_9.sm nv: 511221 nc: 1144607 enctime: 8.55
c File: j12026_9.smnaivebi5.wcnf
c timeout
c final solution cost: 283
c CPU time: 69.152679
s UNKNOWN

c File: j12026_9.smbi5.wcnf
c timeout
c final solution cost: 186
c CPU time: 61.386201
s UNKNOWN


rcpsp/heur_output_bi_constraints/Log=5/heurj120.txt
encoding rcpsp/j120.sm/j1202_6.sm nv: 746478 nc: 1786366 enctime: 32.89
encoding rcpsp/j120.sm/j1202_6.sm nv: 110100 nc: 259290 enctime: 1.27
c File: j1202_6.smnaivebi5.wcnf
c optimal
c final solution cost: 85
c CPU time: 16.325151
s OPTIMUM FOUND

c File: j1202_6.smbi5.wcnf
c optimal
c final solution cost: 85
c CPU time: 1.589459
s OPTIMUM FOUND


rcpsp/heur_output_bi_constraints/Log=5/heurj120.txt
encoding rcpsp/j120.sm/j12027_10.sm nv: 2317938 nc: 4992412 enctime: 63.35
encoding rcpsp/j120.sm/j12027_10.sm nv: 490518 nc: 1052002 enctime: 7.14
c File: j12027_10.smnaivebi5.wcnf
c timeout
c final solution cost: 118
c CPU time: 69.843842
s UNKNOWN

c File: j12027_10.smbi5.wcnf
c timeout
c final solution cost: 120
c CPU time: 60.963491
s UNKNOWN


rcpsp/heur_output_bi_constraints/Log=5/heurj120.txt
encoding rcpsp/j120.sm/j12027_1.sm nv: 1925955 nc: 4106490 enctime: 50.54
encoding rcpsp/j120.sm/j12027_1.sm nv: 394290 nc: 837120 enctime: 5.65
c File: j12027_1.smnaivebi5.wcnf
c timeout
c final solution cost: 145
c CPU time: 67.672641
s UNKNOWN

c File: j12027_1.smbi5.wcnf
c timeout
c final solution cost: 120
c CPU time: 60.748064
s UNKNOWN


rcpsp/heur_output_bi_constraints/Log=5/heurj120.txt
encoding rcpsp/j120.sm/j12027_2.sm nv: 1704380 nc: 3657230 enctime: 45.89
encoding rcpsp/j120.sm/j12027_2.sm nv: 368366 nc: 786914 enctime: 5.41
c File: j12027_2.smnaivebi5.wcnf
c timeout
c final solution cost: 117
c CPU time: 69.872171
s UNKNOWN

c File: j12027_2.smbi5.wcnf
c timeout
c final solution cost: 118
c CPU time: 60.750508
s UNKNOWN


rcpsp/heur_output_bi_constraints/Log=5/heurj120.txt
encoding rcpsp/j120.sm/j12027_3.sm nv: 1745920 nc: 3808596 enctime: 52.76
encoding rcpsp/j120.sm/j12027_3.sm nv: 463360 nc: 1007004 enctime: 7.10
c File: j12027_3.smnaivebi5.wcnf
c timeout
c final solution cost: 150
c CPU time: 68.177877
s UNKNOWN

c File: j12027_3.smbi5.wcnf
c timeout
c final solution cost: 144
c CPU time: 61.015153
s UNKNOWN


rcpsp/heur_output_bi_constraints/Log=5/heurj120.txt
encoding rcpsp/j120.sm/j12027_4.sm nv: 2033415 nc: 4349907 enctime: 53.09
encoding rcpsp/j120.sm/j12027_4.sm nv: 414730 nc: 883463 enctime: 5.97
c File: j12027_4.smnaivebi5.wcnf
c timeout
c final solution cost: 134
c CPU time: 68.041521
s UNKNOWN

c File: j12027_4.smbi5.wcnf
c timeout
c final solution cost: 112
c CPU time: 60.778683
s UNKNOWN


rcpsp/heur_output_bi_constraints/Log=5/heurj120.txt
encoding rcpsp/j120.sm/j12027_5.sm nv: 1762467 nc: 3775860 enctime: 45.47
encoding rcpsp/j120.sm/j12027_5.sm nv: 379086 nc: 808608 enctime: 5.41
c File: j12027_5.smnaivebi5.wcnf
c timeout
c final solution cost: 109
c CPU time: 67.525932
s UNKNOWN

c File: j12027_5.smbi5.wcnf
c timeout
c final solution cost: 110
c CPU time: 60.731458
s UNKNOWN


rcpsp/heur_output_bi_constraints/Log=5/heurj120.txt
encoding rcpsp/j120.sm/j12027_6.sm nv: 1703363 nc: 3713919 enctime: 47.95
encoding rcpsp/j120.sm/j12027_6.sm nv: 488483 nc: 1061439 enctime: 8.56
c File: j12027_6.smnaivebi5.wcnf
c timeout
c final solution cost: 212
c CPU time: 68.122449
s UNKNOWN

c File: j12027_6.smbi5.wcnf
c timeout
c final solution cost: 158
c CPU time: 61.115924
s UNKNOWN


rcpsp/heur_output_bi_constraints/Log=5/heurj120.txt
encoding rcpsp/j120.sm/j12027_7.sm nv: 1765678 nc: 3802506 enctime: 47.30
encoding rcpsp/j120.sm/j12027_7.sm nv: 455836 nc: 978189 enctime: 6.52
c File: j12027_7.smnaivebi5.wcnf
c timeout
c final solution cost: 129
c CPU time: 67.231831
s UNKNOWN

c File: j12027_7.smbi5.wcnf
c timeout
c final solution cost: 127
c CPU time: 60.931710
s UNKNOWN


rcpsp/heur_output_bi_constraints/Log=5/heurj120.txt
encoding rcpsp/j120.sm/j12027_8.sm nv: 1950768 nc: 4253330 enctime: 54.75
encoding rcpsp/j120.sm/j12027_8.sm nv: 495216 nc: 1075694 enctime: 7.21
c File: j12027_8.smnaivebi5.wcnf
c timeout
c final solution cost: 148
c CPU time: 68.794690
s UNKNOWN

c File: j12027_8.smbi5.wcnf
c timeout
c final solution cost: 149
c CPU time: 61.063675
s UNKNOWN


rcpsp/heur_output_bi_constraints/Log=5/heurj120.txt
encoding rcpsp/j120.sm/j12027_9.sm nv: 1768795 nc: 3850203 enctime: 48.70
encoding rcpsp/j120.sm/j12027_9.sm nv: 414195 nc: 897643 enctime: 7.32
c File: j12027_9.smnaivebi5.wcnf
c timeout
c final solution cost: 139
c CPU time: 68.040623
s UNKNOWN

c File: j12027_9.smbi5.wcnf
c timeout
c final solution cost: 131
c CPU time: 60.853085
s UNKNOWN


rcpsp/heur_output_bi_constraints/Log=5/heurj120.txt
encoding rcpsp/j120.sm/j1202_7.sm nv: 650715 nc: 1528875 enctime: 24.30
encoding rcpsp/j120.sm/j1202_7.sm nv: 124605 nc: 289429 enctime: 2.17
c File: j1202_7.smnaivebi5.wcnf
c optimal
c final solution cost: 79
c CPU time: 46.018597
s OPTIMUM FOUND

c File: j1202_7.smbi5.wcnf
c optimal
c final solution cost: 79
c CPU time: 1.829566
s OPTIMUM FOUND


rcpsp/heur_output_bi_constraints/Log=5/heurj120.txt
encoding rcpsp/j120.sm/j12028_10.sm nv: 2141464 nc: 4609232 enctime: 54.64
encoding rcpsp/j120.sm/j12028_10.sm nv: 454064 nc: 973182 enctime: 7.65
c File: j12028_10.smnaivebi5.wcnf
c timeout
c final solution cost: 110
c CPU time: 68.575629
s UNKNOWN

c File: j12028_10.smbi5.wcnf
c timeout
c final solution cost: 110
c CPU time: 60.856847
s UNKNOWN


rcpsp/heur_output_bi_constraints/Log=5/heurj120.txt
encoding rcpsp/j120.sm/j12028_1.sm nv: 2150982 nc: 4571421 enctime: 51.97
encoding rcpsp/j120.sm/j12028_1.sm nv: 411750 nc: 871197 enctime: 5.32
c File: j12028_1.smnaivebi5.wcnf
c timeout
c final solution cost: 102
c CPU time: 68.194117
s UNKNOWN

c File: j12028_1.smbi5.wcnf
c timeout
c final solution cost: 102
c CPU time: 60.674721
s UNKNOWN


